c This is a random SAT instance with 10 variables and 20 clauses
p cnf 10 20
-6 0
9 0
3 1 -7 7 10 -3 -5 0
-6 1 -8 -3 -2 -1 3 5 6 0
-2 1 3 6 2 -5 9 -6 0
-6 0
3 -6 0
-8 -2 -3 0
8 -7 0
4 -1 -8 1 -3 -6 -5 5 2 9 0
2 8 -3 7 10 -6 3 0
7 -2 -4 3 4 5 -3 6 -6 0
-6 -8 -9 7 3 4 1 2 0
-1 3 -3 5 0
5 0
3 10 6 9 1 -6 -9 0
-4 -2 8 -10 5 -5 9 -1 -7 0
-6 -9 -10 -5 7 -1 2 -7 6 0
-9 -5 -10 4 -2 6 2 10 -7 -4 0
-5 -8 -9 -2 -6 -10 0